533
1 0 5 515 1 531 1 530 1 529 1 528 1
2 0 5 67 1 244 1 49 1 70 1 54 1
3 0 5 221 1 114 1 385 1 331 1 292 1
4 0 5 30 1 438 1 385 1 41 1 177 1
5 0 5 441 1 135 1 410 1 107 1 295 1
6 0 5 262 1 293 1 314 1 348 1 342 1
7 0 5 461 1 162 1 465 1 473 1 434 1
8 0 5 210 1 419 1 39 1 81 1 134 1
9 0 5 103 1 31 1 394 1 34 1 84 1
10 0 5 286 1 432 1 353 1 470 1 194 1
11 0 5 477 1 204 1 122 1 443 1 198 1
12 0 5 52 1 77 1 240 1 196 1 228 1
13 0 5 80 1 490 1 417 1 476 1 486 1
14 0 5 15 1 449 1 312 1 428 1 309 1
15 0 5 14 1 22 1 273 1 449 1 316 1
16 0 5 435 1 439 1 470 1 444 1 94 1
17 0 5 148 1 150 1 72 1 61 1 69 1
18 0 5 136 1 181 1 85 1 169 1 242 1
19 0 5 179 1 45 1 257 1 140 1 326 1
20 0 5 210 1 322 1 339 1 281 1 58 1
21 0 5 181 1 68 1 205 1 18 1 136 1
22 0 5 449 1 395 1 15 1 424 1 463 1
23 0 5 93 1 38 1 245 1 96 1 193 1
24 0 5 90 1 379 1 138 1 201 1 221 1
25 0 5 213 1 100 1 229 1 156 1 67 1
26 0 5 174 1 321 1 376 1 190 1 253 1
27 0 5 187 1 103 1 191 1 31 1 222 1
28 0 5 117 1 50 1 129 1 1 1 70 1
29 0 5 71 1 96 1 65 1 369 1 231 1
30 0 5 4 1 385 1 438 1 3 1 76 1
31 0 5 34 1 44 1 27 1 125 1 103 1
32 0 5 359 1 408 1 343 1 458 1 502 1
33 0 5 234 1 251 1 211 1 126 1 127 1
34 0 5 31 1 125 1 27 1 44 1 103 1
35 0 5 480 1 328 1 491 1 209 1 308 1
36 0 5 237 1 175 1 145 1 54 1 88 1
37 0 5 102 1 42 1 344 1 481 1 288 1
38 0 5 245 1 23 1 193 1 93 1 96 1
39 0 5 279 1 431 1 81 1 164 1 99 1
40 0 5 82 1 70 1 1 1 43 1 394 1
41 0 5 108 1 438 1 179 1 4 1 206 1
42 0 5 418 1 37 1 238 1 1 1 102 1
43 0 5 70 1 82 1 1 1 519 1 528 1
44 0 5 205 1 222 1 31 1 68 1 125 1
45 0 5 247 1 114 1 19 1 257 1 76 1
46 0 5 155 1 53 1 357 1 186 1 412 1
47 0 5 334 1 83 1 63 1 341 1 503 1
48 0 5 499 1 265 1 269 1 177 1 369 1
49 0 5 1 1 244 1 8 1 133 1 419 1
50 0 5 28 1 43 1 82 1 117 1 70 1
51 0 5 490 1 265 1 486 1 13 1 269 1
52 0 5 12 1 240 1 77 1 196 1 228 1
53 0 5 46 1 412 1 155 1 508 1 389 1
54 0 5 175 1 237 1 36 1 145 1 279 1
55 0 5 181 1 150 1 203 1 136 1 61 1
56 0 5 282 1 495 1 345 1 512 1 489 1
57 0 5 217 1 225 1 87 1 447 1 422 1
58 0 5 20 1 218 1 335 1 235 1 396 1
59 0 5 387 1 329 1 362 1 151 1 496 1
60 0 5 337 1 331 1 157 1 352 1 292 1
61 0 5 242 1 203 1 69 1 169 1 150 1
62 0 5 182 1 173 1 197 1 113 1 237 1
63 0 5 233 1 47 1 134 1 447 1 341 1
64 0 5 190 1 251 1 127 1 382 1 126 1
65 0 5 71 1 369 1 177 1 29 1 269 1
66 0 5 77 1 138 1 103 1 201 1 170 1
67 0 5 100 1 229 1 215 1 2 1 237 1
68 0 5 222 1 21 1 191 1 44 1 205 1
69 0 5 242 1 61 1 169 1 72 1 28 1
70 0 5 43 1 82 1 40 1 28 1 1 1
71 0 5 65 1 29 1 369 1 96 1 177 1
72 0 5 101 1 17 1 150 1 61 1 69 1
73 0 5 79 1 180 1 91 1 236 1 137 1
74 0 5 216 1 421 1 115 1 268 1 110 1
75 0 5 1 1 531 1 530 1 529 1 528 1
76 0 5 257 1 114 1 30 1 179 1 45 1
77 0 5 52 1 12 1 66 1 176 1 240 1
78 0 5 227 1 178 1 370 1 200 1 350 1
79 0 5 180 1 137 1 73 1 236 1 91 1
80 0 5 476 1 429 1 13 1 486 1 505 1
81 0 5 403 1 134 1 39 1 164 1 99 1
82 0 5 43 1 40 1 70 1 1 1 28 1
83 0 5 334 1 341 1 47 1 455 1 427 1
84 0 5 154 1 105 1 170 1 230 1 138 1
85 0 5 169 1 18 1 242 1 129 1 136 1
86 0 5 184 1 172 1 126 1 107 1 139 1
87 0 5 447 1 225 1 57 1 469 1 217 1
88 0 5 471 1 145 1 123 1 279 1 237 1
89 0 5 163 1 403 1 500 1 398 1 401 1
90 0 5 24 1 247 1 226 1 114 1 430 1
91 0 5 236 1 357 1 73 1 155 1 146 1
92 0 5 327 1 288 1 325 1 418 1 481 1
93 0 5 23 1 38 1 245 1 231 1 96 1
94 0 5 439 1 435 1 160 1 16 1 470 1
95 0 5 158 1 255 1 452 1 353 1 286 1
96 0 5 29 1 71 1 38 1 23 1 193 1
97 0 5 349 1 364 1 160 1 493 1 340 1
98 0 5 284 1 396 1 304 1 484 1 274 1
99 0 5 164 1 166 1 431 1 403 1 131 1
100 0 5 229 1 124 1 25 1 67 1 213 1
101 0 5 104 1 124 1 72 1 148 1 215 1
102 0 5 418 1 37 1 395 1 1 1 416 1
103 0 5 27 1 66 1 9 1 31 1 34 1
104 0 5 148 1 101 1 124 1 72 1 17 1
105 0 5 170 1 154 1 84 1 138 1 430 1
106 0 5 291 1 503 1 224 1 373 1 233 1
107 0 5 86 1 135 1 139 1 132 1 295 1
108 0 5 206 1 41 1 326 1 19 1 140 1
109 0 5 315 1 372 1 195 1 444 1 128 1
110 0 5 387 1 268 1 421 1 115 1 119 1
111 0 5 176 1 165 1 147 1 226 1 201 1
112 0 5 324 1 317 1 295 1 202 1 183 1
113 0 5 232 1 123 1 62 1 145 1 431 1
114 0 5 3 1 76 1 45 1 257 1 90 1
115 0 5 446 1 511 1 110 1 266 1 492 1
116 0 5 276 1 450 1 476 1 420 1 505 1
117 0 5 28 1 185 1 69 1 133 1 43 1
118 0 5 231 1 140 1 326 1 19 1 29 1
119 0 5 268 1 110 1 488 1 256 1 391 1
120 0 5 161 1 281 1 367 1 59 1 343 1
121 0 5 156 1 173 1 182 1 213 1 25 1
122 0 5 477 1 11 1 365 1 264 1 422 1
123 0 5 113 1 232 1 145 1 88 1 471 1
124 0 5 100 1 101 1 104 1 213 1 156 1
125 0 5 34 1 205 1 31 1 44 1 28 1
126 0 5 184 1 86 1 251 1 172 1 33 1
127 0 5 188 1 64 1 190 1 251 1 382 1
128 0 5 152 1 512 1 345 1 510 1 346 1
129 0 5 28 1 85 1 125 1 34 1 70 1
130 0 5 303 1 442 1 296 1 302 1 364 1
131 0 5 287 1 431 1 166 1 462 1 497 1
132 0 5 135 1 410 1 253 1 107 1 376 1
133 0 5 244 1 185 1 49 1 70 1 117 1
134 0 5 210 1 419 1 81 1 63 1 87 1
135 0 5 132 1 410 1 5 1 107 1 441 1
136 0 5 18 1 181 1 55 1 242 1 85 1
137 0 5 180 1 79 1 73 1 193 1 93 1
138 0 5 201 1 170 1 66 1 226 1 105 1
139 0 5 172 1 107 1 184 1 86 1 295 1
140 0 5 118 1 326 1 231 1 19 1 206 1
141 0 5 361 1 407 1 457 1 380 1 482 1
142 0 5 429 1 402 1 417 1 13 1 486 1
143 0 5 241 1 397 1 316 1 312 1 428 1
144 0 5 288 1 342 1 314 1 327 1 262 1
145 0 5 88 1 471 1 123 1 237 1 36 1
146 0 5 236 1 53 1 357 1 91 1 73 1
147 0 5 176 1 111 1 165 1 247 1 226 1
148 0 5 17 1 104 1 101 1 150 1 72 1
149 0 5 292 1 420 1 385 1 331 1 352 1
150 0 5 203 1 17 1 55 1 148 1 72 1
151 0 5 343 1 59 1 458 1 511 1 459 1
152 0 5 128 1 512 1 345 1 510 1 311 1
153 0 5 507 1 483 1 426 1 238 1 102 1
154 0 5 105 1 170 1 84 1 430 1 138 1
155 0 5 46 1 357 1 53 1 91 1 236 1
156 0 5 121 1 213 1 124 1 25 1 100 1
157 0 5 230 1 379 1 60 1 43 1 337 1
158 0 5 95 1 214 1 353 1 320 1 286 1
159 0 5 230 1 379 1 337 1 60 1 417 1
160 0 5 94 1 340 1 97 1 354 1 349 1
161 0 5 120 1 387 1 355 1 377 1 281 1
162 0 5 7 1 461 1 473 1 434 1 465 1
163 0 5 210 1 503 1 89 1 233 1 164 1
164 0 5 99 1 166 1 497 1 431 1 403 1
165 0 5 111 1 176 1 147 1 226 1 201 1
166 0 5 99 1 164 1 497 1 131 1 287 1
167 0 5 208 1 248 1 186 1 219 1 91 1
168 0 5 218 1 338 1 239 1 443 1 494 1
169 0 5 85 1 242 1 61 1 69 1 205 1
170 0 5 105 1 138 1 154 1 201 1 84 1
171 0 5 246 1 211 1 227 1 78 1 188 1
172 0 5 184 1 139 1 86 1 126 1 107 1
173 0 5 182 1 62 1 121 1 197 1 237 1
174 0 5 26 1 190 1 132 1 321 1 253 1
175 0 5 54 1 36 1 67 1 279 1 145 1
176 0 5 111 1 147 1 165 1 77 1 247 1
177 0 5 65 1 499 1 48 1 505 1 438 1
178 0 5 188 1 332 1 78 1 212 1 227 1
179 0 5 19 1 438 1 257 1 41 1 30 1
180 0 5 137 1 79 1 73 1 193 1 93 1
181 0 5 21 1 55 1 136 1 18 1 61 1
182 0 5 173 1 62 1 121 1 197 1 237 1
183 0 5 277 1 433 1 317 1 374 1 411 1
184 0 5 172 1 86 1 126 1 139 1 107 1
185 0 5 28 1 117 1 133 1 43 1 70 1
186 0 5 248 1 208 1 53 1 46 1 167 1
187 0 5 191 1 27 1 228 1 240 1 103 1
188 0 5 127 1 178 1 227 1 492 1 391 1
189 0 5 202 1 317 1 183 1 112 1 324 1
190 0 5 64 1 382 1 127 1 174 1 26 1
191 0 5 187 1 222 1 27 1 68 1 240 1
192 0 5 215 1 229 1 67 1 244 1 49 1
193 0 5 245 1 38 1 96 1 23 1 137 1
194 0 5 381 1 432 1 307 1 10 1 470 1
195 0 5 320 1 214 1 109 1 315 1 372 1
196 0 5 240 1 228 1 52 1 12 1 187 1
197 0 5 237 1 62 1 173 1 36 1 182 1
198 0 5 311 1 509 1 204 1 489 1 477 1
199 0 5 255 1 452 1 432 1 295 1 95 1
200 0 5 219 1 78 1 208 1 227 1 246 1
201 0 5 226 1 138 1 165 1 170 1 24 1
202 0 5 189 1 317 1 112 1 324 1 183 1
203 0 5 150 1 55 1 242 1 61 1 72 1
204 0 5 11 1 477 1 443 1 198 1 489 1
205 0 5 44 1 68 1 125 1 222 1 21 1
206 0 5 108 1 326 1 41 1 140 1 19 1
207 0 5 299 1 334 1 466 1 275 1 106 1
208 0 5 167 1 219 1 248 1 186 1 200 1
209 0 5 308 1 457 1 336 1 363 1 297 1
210 0 5 225 1 20 1 289 1 87 1 134 1
211 0 5 171 1 234 1 33 1 246 1 227 1
212 0 5 488 1 391 1 446 1 492 1 268 1
213 0 5 156 1 25 1 124 1 100 1 121 1
214 0 5 320 1 195 1 158 1 353 1 95 1
215 0 5 192 1 229 1 67 1 49 1 244 1
216 0 5 74 1 421 1 440 1 268 1 115 1
217 0 5 57 1 239 1 289 1 365 1 422 1
218 0 5 168 1 58 1 338 1 239 1 339 1
219 0 5 200 1 208 1 246 1 227 1 167 1
220 0 5 483 1 426 1 507 1 268 1 285 1
221 0 5 3 1 292 1 60 1 337 1 90 1
222 0 5 68 1 44 1 191 1 27 1 205 1
223 0 5 390 1 414 1 308 1 336 1 468 1
224 0 5 291 1 106 1 243 1 373 1 249 1
225 0 5 210 1 419 1 289 1 57 1 87 1
226 0 5 201 1 247 1 147 1 165 1 90 1
227 0 5 171 1 78 1 188 1 211 1 178 1
228 0 5 196 1 240 1 187 1 103 1 12 1
229 0 5 100 1 67 1 215 1 25 1 192 1
230 0 5 159 1 157 1 1 1 402 1 531 1
231 0 5 118 1 140 1 93 1 96 1 326 1
232 0 5 113 1 123 1 431 1 131 1 145 1
233 0 5 503 1 63 1 249 1 106 1 291 1
234 0 5 33 1 251 1 211 1 126 1 127 1
235 0 5 304 1 358 1 335 1 284 1 384 1
236 0 5 146 1 91 1 357 1 73 1 155 1
237 0 5 197 1 36 1 145 1 54 1 123 1
238 0 5 42 1 1 1 530 1 529 1 528 1
239 0 5 338 1 217 1 168 1 218 1 57 1
240 0 5 196 1 52 1 228 1 12 1 187 1
241 0 5 143 1 269 1 290 1 250 1 397 1
242 0 5 61 1 203 1 169 1 69 1 136 1
243 0 5 460 1 373 1 224 1 291 1 106 1
244 0 5 133 1 49 1 192 1 2 1 70 1
245 0 5 38 1 193 1 23 1 93 1 96 1
246 0 5 171 1 219 1 211 1 227 1 200 1
247 0 5 45 1 90 1 226 1 147 1 24 1
248 0 5 167 1 186 1 208 1 53 1 200 1
249 0 5 233 1 373 1 503 1 291 1 106 1
250 0 5 269 1 309 1 241 1 428 1 265 1
251 0 5 33 1 234 1 64 1 126 1 127 1
252 0 5 319 1 502 1 408 1 283 1 513 1
253 0 5 376 1 132 1 410 1 446 1 26 1
254 0 5 340 1 259 1 454 1 364 1 97 1
255 0 5 199 1 452 1 95 1 295 1 324 1
256 0 5 488 1 391 1 492 1 268 1 270 1
257 0 5 76 1 114 1 19 1 179 1 45 1
258 0 5 453 1 425 1 280 1 347 1 466 1
259 0 5 413 1 254 1 475 1 400 1 364 1
260 0 5 351 1 496 1 329 1 141 1 328 1
261 0 5 472 1 267 1 330 1 392 1 415 1
262 0 5 6 1 342 1 314 1 293 1 144 1
263 0 5 368 1 501 1 427 1 495 1 409 1
264 0 5 443 1 122 1 366 1 198 1 338 1
265 0 5 48 1 499 1 51 1 269 1 505 1
266 0 5 446 1 492 1 115 1 511 1 110 1
267 0 5 472 1 330 1 261 1 392 1 288 1
268 0 5 483 1 119 1 110 1 285 1 387 1
269 0 5 48 1 241 1 250 1 265 1 51 1
270 0 5 483 1 426 1 507 1 423 1 220 1
271 0 5 323 1 401 1 464 1 479 1 398 1
272 0 5 305 1 504 1 485 1 296 1 303 1
273 0 5 395 1 415 1 449 1 15 1 481 1
274 0 5 484 1 494 1 396 1 360 1 98 1
275 0 5 299 1 409 1 427 1 207 1 334 1
276 0 5 505 1 116 1 450 1 385 1 476 1
277 0 5 374 1 433 1 183 1 319 1 317 1
278 0 5 468 1 414 1 404 1 223 1 390 1
279 0 5 39 1 471 1 175 1 54 1 88 1
280 0 5 464 1 425 1 258 1 271 1 453 1
281 0 5 387 1 120 1 1 1 426 1 528 1
282 0 5 56 1 495 1 368 1 489 1 345 1
283 0 5 513 1 329 1 351 1 252 1 319 1
284 0 5 456 1 98 1 445 1 304 1 363 1
285 0 5 488 1 391 1 268 1 220 1 423 1
286 0 5 353 1 10 1 95 1 452 1 432 1
287 0 5 131 1 462 1 497 1 166 1 479 1
288 0 5 144 1 392 1 325 1 92 1 267 1
289 0 5 225 1 217 1 20 1 239 1 57 1
290 0 5 369 1 241 1 269 1 7 1 162 1
291 0 5 224 1 106 1 249 1 243 1 233 1
292 0 5 149 1 352 1 331 1 221 1 337 1
293 0 5 262 1 6 1 342 1 327 1 314 1
294 0 5 406 1 347 1 487 1 453 1 258 1
295 0 5 324 1 112 1 107 1 5 1 139 1
296 0 5 303 1 130 1 305 1 493 1 272 1
297 0 5 308 1 209 1 414 1 457 1 336 1
298 0 5 301 1 400 1 306 1 300 1 259 1
299 0 5 207 1 275 1 334 1 466 1 83 1
300 0 5 306 1 494 1 360 1 297 1 301 1
301 0 5 298 1 400 1 306 1 413 1 300 1
302 0 5 366 1 443 1 475 1 442 1 130 1
303 0 5 296 1 130 1 305 1 272 1 442 1
304 0 5 235 1 284 1 98 1 445 1 484 1
305 0 5 272 1 296 1 303 1 504 1 366 1
306 0 5 300 1 494 1 298 1 301 1 454 1
307 0 5 381 1 404 1 194 1 354 1 399 1
308 0 5 209 1 297 1 457 1 35 1 414 1
309 0 5 428 1 14 1 250 1 486 1 397 1
310 0 5 333 1 393 1 462 1 497 1 479 1
311 0 5 509 1 198 1 489 1 345 1 443 1
312 0 5 316 1 14 1 397 1 250 1 143 1
313 0 5 395 1 22 1 1 1 416 1 102 1
314 0 5 262 1 473 1 434 1 6 1 498 1
315 0 5 109 1 372 1 195 1 444 1 512 1
316 0 5 312 1 397 1 428 1 143 1 15 1
317 0 5 183 1 112 1 189 1 202 1 433 1
318 0 5 506 1 15 1 415 1 388 1 449 1
319 0 5 252 1 277 1 502 1 480 1 283 1
320 0 5 214 1 195 1 158 1 353 1 286 1
321 0 5 26 1 446 1 492 1 376 1 174 1
322 0 5 20 1 335 1 384 1 396 1 339 1
323 0 5 271 1 479 1 401 1 464 1 398 1
324 0 5 112 1 295 1 317 1 432 1 202 1
325 0 5 327 1 92 1 288 1 418 1 37 1
326 0 5 206 1 140 1 108 1 118 1 19 1
327 0 5 507 1 92 1 325 1 293 1 348 1
328 0 5 480 1 411 1 35 1 513 1 260 1
329 0 5 59 1 283 1 351 1 367 1 502 1
330 0 5 472 1 463 1 267 1 261 1 415 1
331 0 5 292 1 352 1 337 1 149 1 60 1
332 0 5 488 1 391 1 446 1 492 1 212 1
333 0 5 310 1 393 1 487 1 425 1 280 1
334 0 5 207 1 47 1 83 1 341 1 299 1
335 0 5 384 1 322 1 339 1 58 1 235 1
336 0 5 491 1 209 1 308 1 457 1 297 1
337 0 5 352 1 331 1 159 1 60 1 292 1
338 0 5 168 1 239 1 443 1 264 1 218 1
339 0 5 20 1 396 1 335 1 384 1 218 1
340 0 5 254 1 160 1 454 1 97 1 94 1
341 0 5 503 1 83 1 334 1 47 1 378 1
342 0 5 262 1 434 1 293 1 473 1 314 1
343 0 5 387 1 151 1 32 1 459 1 329 1
344 0 5 395 1 37 1 418 1 1 1 102 1
345 0 5 512 1 489 1 152 1 311 1 198 1
346 0 5 510 1 493 1 272 1 296 1 305 1
347 0 5 406 1 294 1 487 1 453 1 258 1
348 0 5 6 1 383 1 327 1 371 1 262 1
349 0 5 97 1 493 1 444 1 364 1 160 1
350 0 5 412 1 448 1 437 1 389 1 508 1
351 0 5 329 1 283 1 260 1 513 1 496 1
352 0 5 292 1 337 1 331 1 60 1 149 1
353 0 5 286 1 10 1 158 1 95 1 16 1
354 0 5 399 1 404 1 307 1 94 1 160 1
355 0 5 377 1 358 1 356 1 304 1 384 1
356 0 5 362 1 445 1 407 1 375 1 141 1
357 0 5 155 1 91 1 236 1 46 1 146 1
358 0 5 235 1 445 1 304 1 384 1 58 1
359 0 5 436 1 32 1 474 1 386 1 451 1
360 0 5 494 1 478 1 396 1 484 1 300 1
361 0 5 482 1 141 1 491 1 496 1 362 1
362 0 5 375 1 367 1 59 1 407 1 356 1
363 0 5 456 1 457 1 209 1 284 1 445 1
364 0 5 97 1 349 1 493 1 130 1 254 1
365 0 5 422 1 122 1 217 1 447 1 338 1
366 0 5 485 1 443 1 302 1 264 1 504 1
367 0 5 387 1 513 1 362 1 329 1 496 1
368 0 5 263 1 501 1 495 1 282 1 427 1
369 0 5 65 1 71 1 48 1 290 1 29 1
370 0 5 389 1 78 1 448 1 350 1 53 1
371 0 5 448 1 332 1 488 1 212 1 178 1
372 0 5 109 1 444 1 315 1 195 1 16 1
373 0 5 460 1 243 1 249 1 224 1 106 1
374 0 5 277 1 433 1 183 1 436 1 474 1
375 0 5 362 1 496 1 482 1 356 1 329 1
376 0 5 253 1 446 1 321 1 26 1 511 1
377 0 5 355 1 358 1 304 1 384 1 356 1
378 0 5 455 1 469 1 447 1 83 1 47 1
379 0 5 159 1 157 1 60 1 430 1 230 1
380 0 5 496 1 482 1 141 1 329 1 362 1
381 0 5 307 1 194 1 404 1 354 1 278 1
382 0 5 190 1 64 1 127 1 251 1 26 1
383 0 5 498 1 348 1 6 1 350 1 314 1
384 0 5 335 1 322 1 58 1 339 1 235 1
385 0 5 30 1 450 1 149 1 4 1 3 1
386 0 5 451 1 440 1 474 1 359 1 458 1
387 0 5 343 1 59 1 421 1 281 1 367 1
388 0 5 405 1 506 1 330 1 318 1 143 1
389 0 5 370 1 53 1 350 1 412 1 448 1
390 0 5 223 1 336 1 308 1 468 1 414 1
391 0 5 488 1 332 1 212 1 448 1 467 1
392 0 5 267 1 288 1 481 1 261 1 472 1
393 0 5 310 1 462 1 333 1 479 1 497 1
394 0 5 43 1 40 1 9 1 70 1 82 1
395 0 5 102 1 416 1 313 1 344 1 273 1
396 0 5 484 1 339 1 360 1 98 1 274 1
397 0 5 316 1 143 1 428 1 312 1 250 1
398 0 5 500 1 401 1 89 1 403 1 373 1
399 0 5 404 1 354 1 307 1 454 1 340 1
400 0 5 494 1 301 1 413 1 298 1 478 1
401 0 5 398 1 271 1 479 1 89 1 323 1
402 0 5 486 1 417 1 142 1 13 1 313 1
403 0 5 89 1 398 1 401 1 81 1 497 1
404 0 5 399 1 354 1 307 1 381 1 278 1
405 0 5 388 1 415 1 473 1 434 1 330 1
406 0 5 294 1 347 1 487 1 453 1 258 1
407 0 5 362 1 445 1 141 1 491 1 496 1
408 0 5 502 1 32 1 329 1 252 1 436 1
409 0 5 275 1 501 1 427 1 263 1 299 1
410 0 5 135 1 132 1 441 1 253 1 451 1
411 0 5 328 1 480 1 183 1 319 1 308 1
412 0 5 53 1 508 1 350 1 389 1 437 1
413 0 5 475 1 259 1 400 1 478 1 301 1
414 0 5 223 1 297 1 308 1 336 1 390 1
415 0 5 273 1 424 1 463 1 261 1 472 1
416 0 5 395 1 273 1 22 1 102 1 313 1
417 0 5 429 1 402 1 13 1 142 1 486 1
418 0 5 102 1 42 1 344 1 507 1 481 1
419 0 5 225 1 134 1 8 1 210 1 1 1
420 0 5 450 1 149 1 385 1 292 1 116 1
421 0 5 387 1 216 1 110 1 268 1 459 1
422 0 5 365 1 122 1 217 1 57 1 338 1
423 0 5 488 1 391 1 270 1 285 1 153 1
424 0 5 415 1 392 1 481 1 261 1 288 1
425 0 5 280 1 258 1 453 1 487 1 464 1
426 0 5 220 1 270 1 1 1 387 1 523 1
427 0 5 275 1 409 1 334 1 83 1 455 1
428 0 5 309 1 14 1 397 1 316 1 486 1
429 0 5 80 1 417 1 142 1 490 1 476 1
430 0 5 379 1 154 1 90 1 230 1 105 1
431 0 5 131 1 232 1 39 1 164 1 99 1
432 0 5 194 1 10 1 452 1 324 1 199 1
433 0 5 374 1 277 1 183 1 317 1 474 1
434 0 5 473 1 342 1 314 1 162 1 262 1
435 0 5 439 1 16 1 94 1 470 1 444 1
436 0 5 359 1 474 1 374 1 433 1 277 1
437 0 5 508 1 350 1 412 1 383 1 498 1
438 0 5 4 1 41 1 179 1 30 1 177 1
439 0 5 435 1 470 1 16 1 94 1 160 1
440 0 5 458 1 511 1 386 1 343 1 321 1
441 0 5 5 1 410 1 135 1 451 1 474 1
442 0 5 130 1 302 1 366 1 303 1 364 1
443 0 5 264 1 204 1 485 1 338 1 11 1
444 0 5 372 1 109 1 16 1 349 1 315 1
445 0 5 284 1 456 1 407 1 304 1 358 1
446 0 5 321 1 376 1 115 1 266 1 253 1
447 0 5 469 1 87 1 378 1 365 1 57 1
448 0 5 371 1 391 1 350 1 488 1 389 1
449 0 5 22 1 14 1 273 1 15 1 463 1
450 0 5 420 1 276 1 385 1 116 1 149 1
451 0 5 386 1 474 1 441 1 410 1 359 1
452 0 5 199 1 255 1 95 1 432 1 286 1
453 0 5 258 1 347 1 406 1 294 1 425 1
454 0 5 340 1 254 1 399 1 298 1 354 1
455 0 5 378 1 83 1 489 1 47 1 427 1
456 0 5 363 1 284 1 445 1 457 1 209 1
457 0 5 209 1 363 1 491 1 141 1 308 1
458 0 5 511 1 440 1 459 1 32 1 376 1
459 0 5 458 1 511 1 343 1 421 1 151 1
460 0 5 243 1 373 1 401 1 249 1 106 1
461 0 5 7 1 465 1 162 1 473 1 434 1
462 0 5 287 1 310 1 393 1 131 1 497 1
463 0 5 330 1 472 1 415 1 15 1 449 1
464 0 5 280 1 271 1 425 1 323 1 460 1
465 0 5 461 1 7 1 498 1 342 1 383 1
466 0 5 299 1 207 1 243 1 258 1 291 1
467 0 5 488 1 391 1 153 1 270 1 423 1
468 0 5 278 1 390 1 223 1 414 1 308 1
469 0 5 447 1 378 1 455 1 87 1 63 1
470 0 5 439 1 435 1 10 1 16 1 94 1
471 0 5 88 1 145 1 123 1 279 1 431 1
472 0 5 330 1 267 1 261 1 463 1 415 1
473 0 5 434 1 162 1 342 1 461 1 314 1
474 0 5 451 1 436 1 386 1 359 1 441 1
475 0 5 478 1 413 1 494 1 400 1 302 1
476 0 5 80 1 505 1 490 1 13 1 116 1
477 0 5 11 1 122 1 204 1 489 1 198 1
478 0 5 360 1 475 1 413 1 400 1 494 1
479 0 5 323 1 497 1 401 1 271 1 393 1
480 0 5 328 1 35 1 411 1 319 1 336 1
481 0 5 392 1 273 1 424 1 92 1 267 1
482 0 5 361 1 496 1 362 1 380 1 141 1
483 0 5 268 1 270 1 220 1 153 1 1 1
484 0 5 396 1 274 1 494 1 360 1 98 1
485 0 5 443 1 366 1 504 1 272 1 305 1
486 0 5 402 1 490 1 51 1 309 1 13 1
487 0 5 294 1 406 1 347 1 453 1 425 1
488 0 5 391 1 285 1 212 1 332 1 467 1
489 0 5 198 1 455 1 477 1 495 1 311 1
490 0 5 51 1 486 1 13 1 429 1 476 1
491 0 5 336 1 361 1 407 1 457 1 35 1
492 0 5 321 1 332 1 266 1 212 1 256 1
493 0 5 349 1 346 1 444 1 296 1 97 1
494 0 5 360 1 274 1 484 1 400 1 475 1
495 0 5 282 1 56 1 489 1 368 1 263 1
496 0 5 375 1 361 1 380 1 367 1 482 1
497 0 5 287 1 166 1 479 1 164 1 403 1
498 0 5 383 1 508 1 314 1 465 1 412 1
499 0 5 48 1 265 1 177 1 505 1 369 1
500 0 5 398 1 89 1 401 1 373 1 479 1
501 0 5 368 1 263 1 409 1 427 1 495 1
502 0 5 408 1 252 1 329 1 32 1 319 1
503 0 5 341 1 233 1 163 1 106 1 249 1
504 0 5 485 1 443 1 198 1 272 1 366 1
505 0 5 276 1 499 1 476 1 177 1 265 1
506 0 5 318 1 388 1 415 1 463 1 405 1
507 0 5 153 1 327 1 270 1 1 1 220 1
508 0 5 412 1 437 1 53 1 350 1 498 1
509 0 5 311 1 198 1 489 1 443 1 345 1
510 0 5 346 1 128 1 152 1 272 1 305 1
511 0 5 458 1 440 1 376 1 459 1 74 1
512 0 5 345 1 128 1 152 1 56 1 315 1
513 0 5 367 1 283 1 351 1 252 1 328 1
514 0 5 515 1 531 1 530 1 529 1 528 1
515 0 5 515 1 531 1 530 1 529 1 528 1
516 0 5 515 1 531 1 530 1 529 1 528 1
517 0 5 515 1 531 1 530 1 529 1 528 1
518 0 5 515 1 531 1 530 1 529 1 528 1
519 0 5 515 1 531 1 530 1 529 1 528 1
520 0 5 515 1 531 1 530 1 529 1 528 1
521 0 5 515 1 531 1 530 1 529 1 528 1
522 0 5 515 1 531 1 530 1 529 1 528 1
523 0 5 515 1 531 1 530 1 529 1 528 1
524 0 5 515 1 531 1 530 1 529 1 528 1
525 0 5 515 1 531 1 530 1 529 1 528 1
526 0 5 515 1 531 1 530 1 529 1 528 1
527 0 5 515 1 531 1 530 1 529 1 528 1
528 0 5 515 1 531 1 530 1 529 1 528 1
529 0 5 515 1 531 1 530 1 529 1 528 1
530 0 5 515 1 531 1 530 1 529 1 528 1
531 0 5 515 1 531 1 530 1 529 1 528 1
532 0 5 515 1 531 1 530 1 529 1 528 1
533 0 5 515 1 531 1 530 1 529 1 528 1
-1
EOF
